20
10
109861
0
0
38 39 57 49 64 47 40 67 47 41
1
0
42 34 54 48 63 47 42 65 49 38
2
0
39 38 56 51 59 47 42 67 51 40
3
0
40 32 49 53 63 48 38 65 53 45
4
0
41 37 58 49 68 47 40 67 49 43
5
0
40 37 58 48 66 47 41 63 50 44
6
0
36 37 57 53 69 43 38 66 50 43
7
0
36 38 57 53 62 41 40 64 48 42
8
0
39 39 55 49 61 44 40 63 49 40
9
0
41 37 55 49 66 45 42 70 52 41
10
0
41 40 57 50 62 44 41 63 50 40
11
0
41 39 54 51 63 45 38 63 47 38
12
0
40 35 53 51 66 46 39 68 48 38
13
0
37 34 57 50 64 47 42 66 49 39
14
0
43 41 56 48 63 47 41 66 51 42
15
0
37 37 53 54 61 46 40 68 52 39
16
0
39 34 58 49 68 42 37 70 49 37
17
0
39 37 57 50 63 45 40 64 50 40
18
0
38 38 53 51 60 41 43 66 47 38
19
0
42 36 56 49 62 49 41 69 48 38
